
  32    1
  10

   0   0  12 2 3 4 5 6 8 9 10 11 12 15 16 
  10   4   6 30 29 21 17 13 7 
   5   9   8 31 28 27 23 22 21 18 17 
  10   9   7 30 28 26 22 21 18 14 
   3  10   7 29 27 26 22 20 19 18 
   3   5   7 31 27 26 24 22 21 20 
   9   2   6 28 24 23 22 20 18 
   3   9   5 27 23 22 21 17 
   3   9   6 31 30 26 22 21 20 
   2   9   6 28 27 26 22 21 20 
   4  10   6 27 24 23 22 21 20 
   9   9   5 29 23 22 21 20 
  10   8   4 27 26 25 20 
   4  10   4 25 24 23 20 
   8  10   3 26 25 21 
   7   5   3 23 21 20 
   4  10   2 24 20 
   3   6   1 25 
   3   8   1 21 
   6   9   1 32
   1   9   1 32
   5   7   1 32
   6   8   1 32
   5   8   1 32
   4   5   1 32
   7  10   1 32
   4   8   1 32
   3   7   1 32
   1   7   1 32
   9  10   1 32
   1  10   1 32
   0   0   0 
